35 94 80 68 69 15 97 59 11 16 38 87 9 75 45 2 78 13 86 57 10 58 77 24 22 
91 92 66 12 47 17 60 70 1 3 21 99 8 53 84 5 55 74 50 27 31 30 89 18 25 
88 81 43 61 54 96 56 64 48 23 20 49 19 76 51 63 85 95 65 98 82 73 14 52 83 90 4 6 7 46 36 42 40 37 39 41 72 71 93 
32 33 28 26 29 44 67 62 34 79 100 

